\ENCODING=ISO-8859-1
\Problem name: ILOG.CPLEX

Minimize
 obj: gamma_2_5_0 + gamma_2_5_1 + gamma_2_5_2 + gamma_2_4_0 + gamma_2_4_1
      + gamma_2_4_2 + gamma_2_3_0 + gamma_2_3_1 + gamma_2_3_2 + gamma_2_2_0
      + gamma_2_2_1 + gamma_2_2_2 + gamma_2_1_0 + gamma_2_1_1 + gamma_2_1_2
      + gamma_2_0_0 + gamma_2_0_1 + gamma_2_0_2 + gamma_4_5_0 + gamma_4_5_1
      + gamma_4_5_2 + gamma_4_4_0 + gamma_4_4_1 + gamma_4_4_2 + gamma_4_3_0
      + gamma_4_3_1 + gamma_4_3_2 + gamma_4_2_0 + gamma_4_2_1 + gamma_4_2_2
      + gamma_4_1_0 + gamma_4_1_1 + gamma_4_1_2 + gamma_4_0_0 + gamma_4_0_1
      + gamma_4_0_2 + gamma_1_1_0 + gamma_1_1_1 + gamma_1_0_0 + gamma_1_0_1
      + gamma_0_1_0 + gamma_0_1_1 + gamma_0_0_0 + gamma_0_0_1 + gamma_3_5_0
      + gamma_3_5_1 + gamma_3_5_2 + gamma_3_4_0 + gamma_3_4_1 + gamma_3_4_2
      + gamma_3_3_0 + gamma_3_3_1 + gamma_3_3_2 + gamma_3_2_0 + gamma_3_2_1
      + gamma_3_2_2 + gamma_3_1_0 + gamma_3_1_1 + gamma_3_1_2 + gamma_3_0_0
      + gamma_3_0_1 + gamma_3_0_2
Subject To
 C1_0#0:          s_2_5 + s_2_4 + s_2_3 + s_2_2 + s_2_1 + s_2_0  = 1
 C1_1#1:          s_4_5 + s_4_4 + s_4_3 + s_4_2 + s_4_1 + s_4_0  = 1
 C1_2#2:          s_1_1 + s_1_0  = 1
 C1_3#3:          s_0_1 + s_0_0  = 1
 C1_4#4:          s_3_5 + s_3_4 + s_3_3 + s_3_2 + s_3_1 + s_3_0  = 1
 _2_0_0_0_0#5:    6.751 gamma_2_5_0 - 6.751 s_2_5 - 3 g_1 - 3 g_2 + 0.75 g_4
                  >= -6.75
 _2_0_0_0_2#6:    8.101 gamma_2_5_0 - 8.101 s_2_5 + g_0 - 4 g_1 - 1.5 g_2 - g_3
                  + 0.6 g_4 >= -8.1
 _2_0_0_0_4#7:    9.06766666666667 gamma_2_5_0 - 9.06766666666667 s_2_5 + 2 g_0
                  - 4 g_1 - 0.666666666666667 g_2 - 2 g_3 + 0.4 g_4
                  >= -9.06666666666667
 _2_0_0_0_7#8:    5.83433333333333 gamma_2_5_0 - 5.83433333333333 s_2_5 + 2 g_0
                  - g_1 + 0.333333333333333 g_2 - 2 g_3 - 0.5 g_4
                  >= -5.83333333333333
 _2_0_0_1_0#9:    4.651 gamma_2_5_1 - 4.651 s_2_5 - g_0 + g_1 - 1.5 g_2 + g_3
                  + 0.15 g_4 >= -4.65
 _2_0_0_1_3#10:   3.03433333333333 gamma_2_5_1 - 3.03433333333333 s_2_5 + g_0
                  + 0.833333333333333 g_2 - g_3 - 0.2 g_4 >= -3.03333333333333
 _2_0_0_1_5#11:   7.93433333333333 gamma_2_5_1 - 7.93433333333333 s_2_5 + g_0
                  + 3 g_1 + 1.83333333333333 g_2 - g_3 - 1.1 g_4
                  >= -7.93333333333333
 _2_0_1_0_0#12:   6.751 gamma_2_4_0 - 6.751 s_2_4 - 3 g_1 - 3 g_2 + 0.75 g_4
                  >= -6.75
 _2_0_1_0_2#13:   8.101 gamma_2_4_0 - 8.101 s_2_4 + g_0 - 4 g_1 - 1.5 g_2 - g_3
                  + 0.6 g_4 >= -8.1
 _2_0_1_0_4#14:   9.06766666666667 gamma_2_4_0 - 9.06766666666667 s_2_4 + 2 g_0
                  - 4 g_1 - 0.666666666666667 g_2 - 2 g_3 + 0.4 g_4
                  >= -9.06666666666667
 _2_0_1_0_7#15:   5.83433333333333 gamma_2_4_0 - 5.83433333333333 s_2_4 + 2 g_0
                  - g_1 + 0.333333333333333 g_2 - 2 g_3 - 0.5 g_4
                  >= -5.83333333333333
 _2_0_1_1_1#16:   4.651 gamma_2_4_1 - 4.651 s_2_4 + g_0 - g_1 + 1.5 g_2 - g_3
                  - 0.15 g_4 >= -4.65
 _2_0_1_1_3#17:   7.68433333333333 gamma_2_4_1 - 7.68433333333333 s_2_4 + 2 g_0
                  - g_1 + 2.33333333333333 g_2 - 2 g_3 - 0.35 g_4
                  >= -7.68333333333333
 _2_0_1_1_5#18:   10.5843333333333 gamma_2_4_1 - 10.5843333333333 s_2_4 + 2 g_0
                  + 2 g_1 + 3.33333333333333 g_2 - 2 g_3 - 1.25 g_4
                  >= -10.5833333333333
 _2_0_2_0_0#19:   4.651 gamma_2_3_0 - 4.651 s_2_3 - g_0 + g_1 - 1.5 g_2 + g_3
                  + 0.15 g_4 >= -4.65
 _2_0_2_0_3#20:   3.03433333333333 gamma_2_3_0 - 3.03433333333333 s_2_3 + g_0
                  + 0.833333333333333 g_2 - g_3 - 0.2 g_4 >= -3.03333333333333
 _2_0_2_0_5#21:   8.101 gamma_2_3_0 - 8.101 s_2_3 - g_0 + 4 g_1 + 1.5 g_2 + g_3
                  - 0.6 g_4 >= -8.1
 _2_0_2_0_7#22:   7.93433333333333 gamma_2_3_0 - 7.93433333333333 s_2_3 + g_0
                  + 3 g_1 + 1.83333333333333 g_2 - g_3 - 1.1 g_4
                  >= -7.93333333333333
 _2_0_2_1_0#23:   6.751 gamma_2_3_1 - 6.751 s_2_3 - 3 g_1 - 3 g_2 + 0.75 g_4
                  >= -6.75
 _2_0_3_0_0#24:   4.651 gamma_2_2_0 - 4.651 s_2_2 - g_0 + g_1 - 1.5 g_2 + g_3
                  + 0.15 g_4 >= -4.65
 _2_0_3_0_3#25:   3.03433333333333 gamma_2_2_0 - 3.03433333333333 s_2_2 + g_0
                  + 0.833333333333333 g_2 - g_3 - 0.2 g_4 >= -3.03333333333333
 _2_0_3_0_5#26:   8.101 gamma_2_2_0 - 8.101 s_2_2 - g_0 + 4 g_1 + 1.5 g_2 + g_3
                  - 0.6 g_4 >= -8.1
 _2_0_3_0_7#27:   7.93433333333333 gamma_2_2_0 - 7.93433333333333 s_2_2 + g_0
                  + 3 g_1 + 1.83333333333333 g_2 - g_3 - 1.1 g_4
                  >= -7.93333333333333
 _2_0_3_1_1#28:   6.751 gamma_2_2_1 - 6.751 s_2_2 + 3 g_1 + 3 g_2 - 0.75 g_4
                  >= -6.75
 _2_0_4_0_1#29:   4.651 gamma_2_1_0 - 4.651 s_2_1 + g_0 - g_1 + 1.5 g_2 - g_3
                  - 0.15 g_4 >= -4.65
 _2_0_4_0_3#30:   7.68433333333333 gamma_2_1_0 - 7.68433333333333 s_2_1 + 2 g_0
                  - g_1 + 2.33333333333333 g_2 - 2 g_3 - 0.35 g_4
                  >= -7.68333333333333
 _2_0_4_0_5#31:   6.751 gamma_2_1_0 - 6.751 s_2_1 + 3 g_1 + 3 g_2 - 0.75 g_4
                  >= -6.75
 _2_0_4_0_7#32:   10.5843333333333 gamma_2_1_0 - 10.5843333333333 s_2_1 + 2 g_0
                  + 2 g_1 + 3.33333333333333 g_2 - 2 g_3 - 1.25 g_4
                  >= -10.5833333333333
 _2_0_4_1_0#33:   8.101 gamma_2_1_1 - 8.101 s_2_1 + g_0 - 4 g_1 - 1.5 g_2 - g_3
                  + 0.6 g_4 >= -8.1
 _2_0_4_1_2#34:   9.06766666666667 gamma_2_1_1 - 9.06766666666667 s_2_1 + 2 g_0
                  - 4 g_1 - 0.666666666666667 g_2 - 2 g_3 + 0.4 g_4
                  >= -9.06666666666667
 _2_0_4_1_5#35:   5.83433333333333 gamma_2_1_1 - 5.83433333333333 s_2_1 + 2 g_0
                  - g_1 + 0.333333333333333 g_2 - 2 g_3 - 0.5 g_4
                  >= -5.83333333333333
 _2_0_5_0_1#36:   4.651 gamma_2_0_0 - 4.651 s_2_0 + g_0 - g_1 + 1.5 g_2 - g_3
                  - 0.15 g_4 >= -4.65
 _2_0_5_0_3#37:   7.68433333333333 gamma_2_0_0 - 7.68433333333333 s_2_0 + 2 g_0
                  - g_1 + 2.33333333333333 g_2 - 2 g_3 - 0.35 g_4
                  >= -7.68333333333333
 _2_0_5_0_5#38:   6.751 gamma_2_0_0 - 6.751 s_2_0 + 3 g_1 + 3 g_2 - 0.75 g_4
                  >= -6.75
 _2_0_5_0_7#39:   10.5843333333333 gamma_2_0_0 - 10.5843333333333 s_2_0 + 2 g_0
                  + 2 g_1 + 3.33333333333333 g_2 - 2 g_3 - 1.25 g_4
                  >= -10.5833333333333
 _2_0_5_1_1#40:   3.03433333333333 gamma_2_0_1 - 3.03433333333333 s_2_0 + g_0
                  + 0.833333333333333 g_2 - g_3 - 0.2 g_4 >= -3.03333333333333
 _2_0_5_1_3#41:   8.101 gamma_2_0_1 - 8.101 s_2_0 - g_0 + 4 g_1 + 1.5 g_2 + g_3
                  - 0.6 g_4 >= -8.1
 _2_0_5_1_5#42:   7.93433333333333 gamma_2_0_1 - 7.93433333333333 s_2_0 + g_0
                  + 3 g_1 + 1.83333333333333 g_2 - g_3 - 1.1 g_4
                  >= -7.93333333333333
 _2_1_0_0_0#43:   6.751 gamma_4_5_0 - 6.751 s_4_5 - 3 g_1 - 3 g_2 + 0.75 g_4
                  >= -6.75
 _2_1_0_0_2#44:   10.501 gamma_4_5_0 - 10.501 s_4_5 + 2 g_0 - 5 g_1 - g_2
                  - 2 g_3 + 0.5 g_4 >= -10.5
 _2_1_0_0_4#45:   10.501 gamma_4_5_0 - 10.501 s_4_5 + 2 g_0 - 5 g_1 - g_2
                  - 2 g_3 + 0.5 g_4 >= -10.5
 _2_1_0_0_6#46:   7.58433333333333 gamma_4_5_0 - 7.58433333333333 s_4_5 + 2 g_0
                  - 3 g_1 - 0.333333333333333 g_2 - 2 g_3 + 0.25 g_4
                  >= -7.58333333333333
 _2_1_0_0_8#47:   0.001 gamma_4_5_0 - 0.001 s_4_5 >= 0
 _2_1_0_0_11#48:  3.501 gamma_4_5_0 - 3.501 s_4_5 + g_0 + 0.5 g_2 - g_3 - g_4
                  >= -3.5
 _2_1_0_1_0#49:   8.251 gamma_4_5_1 - 8.251 s_4_5 - 2 g_0 + 2 g_1 - 2 g_2
                  + 2 g_3 + 0.25 g_4 >= -8.25
 _2_1_0_1_3#50:   0.001 gamma_4_5_1 - 0.001 s_4_5 >= 0
 _2_1_0_1_5#51:   2.91766666666667 gamma_4_5_1 - 2.91766666666667 s_4_5 + 2 g_1
                  + 0.666666666666667 g_2 - 0.25 g_4 >= -2.91666666666667
 _2_1_0_1_7#52:   10.501 gamma_4_5_1 - 10.501 s_4_5 - 2 g_0 + 5 g_1 + g_2
                  + 2 g_3 - 0.5 g_4 >= -10.5
 _2_1_0_1_9#53:   10.001 gamma_4_5_1 - 10.001 s_4_5 - g_0 + 5 g_1 + 1.5 g_2
                  + g_3 - 1.5 g_4 >= -10
 _2_1_0_2_1#54:   6.751 gamma_4_5_2 - 6.751 s_4_5 + 3 g_1 + 3 g_2 - 0.75 g_4
                  >= -6.75
 _2_1_1_0_0#55:   6.751 gamma_4_4_0 - 6.751 s_4_4 - 3 g_1 - 3 g_2 + 0.75 g_4
                  >= -6.75
 _2_1_1_0_2#56:   10.501 gamma_4_4_0 - 10.501 s_4_4 + 2 g_0 - 5 g_1 - g_2
                  - 2 g_3 + 0.5 g_4 >= -10.5
 _2_1_1_0_4#57:   10.501 gamma_4_4_0 - 10.501 s_4_4 + 2 g_0 - 5 g_1 - g_2
                  - 2 g_3 + 0.5 g_4 >= -10.5
 _2_1_1_0_6#58:   7.58433333333333 gamma_4_4_0 - 7.58433333333333 s_4_4 + 2 g_0
                  - 3 g_1 - 0.333333333333333 g_2 - 2 g_3 + 0.25 g_4
                  >= -7.58333333333333
 _2_1_1_0_8#59:   0.001 gamma_4_4_0 - 0.001 s_4_4 >= 0
 _2_1_1_0_11#60:  3.501 gamma_4_4_0 - 3.501 s_4_4 + g_0 + 0.5 g_2 - g_3 - g_4
                  >= -3.5
 _2_1_1_1_1#61:   8.251 gamma_4_4_1 - 8.251 s_4_4 + 2 g_0 - 2 g_1 + 2 g_2
                  - 2 g_3 - 0.25 g_4 >= -8.25
 _2_1_1_1_3#62:   8.251 gamma_4_4_1 - 8.251 s_4_4 + 2 g_0 - 2 g_1 + 2 g_2
                  - 2 g_3 - 0.25 g_4 >= -8.25
 _2_1_1_1_5#63:   7.16766666666667 gamma_4_4_1 - 7.16766666666667 s_4_4 + 2 g_0
                  + 2.66666666666667 g_2 - 2 g_3 - 0.5 g_4 >= -7.16666666666667
 _2_1_1_1_7#64:   6.751 gamma_4_4_1 - 6.751 s_4_4 + 3 g_1 + 3 g_2 - 0.75 g_4
                  >= -6.75
 _2_1_1_1_9#65:   10.251 gamma_4_4_1 - 10.251 s_4_4 + g_0 + 3 g_1 + 3.5 g_2
                  - g_3 - 1.75 g_4 >= -10.25
 _2_1_1_2_1#66:   0.001 gamma_4_4_2 - 0.001 s_4_4 >= 0
 _2_1_1_2_3#67:   2.91766666666667 gamma_4_4_2 - 2.91766666666667 s_4_4 + 2 g_1
                  + 0.666666666666667 g_2 - 0.25 g_4 >= -2.91666666666667
 _2_1_1_2_5#68:   10.501 gamma_4_4_2 - 10.501 s_4_4 - 2 g_0 + 5 g_1 + g_2
                  + 2 g_3 - 0.5 g_4 >= -10.5
 _2_1_1_2_7#69:   10.001 gamma_4_4_2 - 10.001 s_4_4 - g_0 + 5 g_1 + 1.5 g_2
                  + g_3 - 1.5 g_4 >= -10
 _2_1_2_0_0#70:   8.251 gamma_4_3_0 - 8.251 s_4_3 - 2 g_0 + 2 g_1 - 2 g_2
                  + 2 g_3 + 0.25 g_4 >= -8.25
 _2_1_2_0_3#71:   0.001 gamma_4_3_0 - 0.001 s_4_3 >= 0
 _2_1_2_0_5#72:   2.91766666666667 gamma_4_3_0 - 2.91766666666667 s_4_3 + 2 g_1
                  + 0.666666666666667 g_2 - 0.25 g_4 >= -2.91666666666667
 _2_1_2_0_7#73:   10.501 gamma_4_3_0 - 10.501 s_4_3 - 2 g_0 + 5 g_1 + g_2
                  + 2 g_3 - 0.5 g_4 >= -10.5
 _2_1_2_0_9#74:   10.501 gamma_4_3_0 - 10.501 s_4_3 - 2 g_0 + 5 g_1 + g_2
                  + 2 g_3 - 0.5 g_4 >= -10.5
 _2_1_2_0_11#75:  10.001 gamma_4_3_0 - 10.001 s_4_3 - g_0 + 5 g_1 + 1.5 g_2
                  + g_3 - 1.5 g_4 >= -10
 _2_1_2_1_0#76:   6.751 gamma_4_3_1 - 6.751 s_4_3 - 3 g_1 - 3 g_2 + 0.75 g_4
                  >= -6.75
 _2_1_2_1_2#77:   0.001 gamma_4_3_1 - 0.001 s_4_3 >= 0
 _2_1_2_1_5#78:   3.501 gamma_4_3_1 - 3.501 s_4_3 + g_0 + 0.5 g_2 - g_3 - g_4
                  >= -3.5
 _2_1_2_2_1#79:   6.751 gamma_4_3_2 - 6.751 s_4_3 + 3 g_1 + 3 g_2 - 0.75 g_4
                  >= -6.75
 _2_1_3_0_0#80:   8.251 gamma_4_2_0 - 8.251 s_4_2 - 2 g_0 + 2 g_1 - 2 g_2
                  + 2 g_3 + 0.25 g_4 >= -8.25
 _2_1_3_0_3#81:   0.001 gamma_4_2_0 - 0.001 s_4_2 >= 0
 _2_1_3_0_5#82:   2.91766666666667 gamma_4_2_0 - 2.91766666666667 s_4_2 + 2 g_1
                  + 0.666666666666667 g_2 - 0.25 g_4 >= -2.91666666666667
 _2_1_3_0_7#83:   10.501 gamma_4_2_0 - 10.501 s_4_2 - 2 g_0 + 5 g_1 + g_2
                  + 2 g_3 - 0.5 g_4 >= -10.5
 _2_1_3_0_9#84:   10.501 gamma_4_2_0 - 10.501 s_4_2 - 2 g_0 + 5 g_1 + g_2
                  + 2 g_3 - 0.5 g_4 >= -10.5
 _2_1_3_0_11#85:  10.001 gamma_4_2_0 - 10.001 s_4_2 - g_0 + 5 g_1 + 1.5 g_2
                  + g_3 - 1.5 g_4 >= -10
 _2_1_3_1_1#86:   6.751 gamma_4_2_1 - 6.751 s_4_2 + 3 g_1 + 3 g_2 - 0.75 g_4
                  >= -6.75
 _2_1_3_1_3#87:   6.751 gamma_4_2_1 - 6.751 s_4_2 + 3 g_1 + 3 g_2 - 0.75 g_4
                  >= -6.75
 _2_1_3_1_5#88:   10.251 gamma_4_2_1 - 10.251 s_4_2 + g_0 + 3 g_1 + 3.5 g_2
                  - g_3 - 1.75 g_4 >= -10.25
 _2_1_3_2_0#89:   0.001 gamma_4_2_2 - 0.001 s_4_2 >= 0
 _2_1_4_0_1#90:   8.251 gamma_4_1_0 - 8.251 s_4_1 + 2 g_0 - 2 g_1 + 2 g_2
                  - 2 g_3 - 0.25 g_4 >= -8.25
 _2_1_4_0_3#91:   8.251 gamma_4_1_0 - 8.251 s_4_1 + 2 g_0 - 2 g_1 + 2 g_2
                  - 2 g_3 - 0.25 g_4 >= -8.25
 _2_1_4_0_5#92:   7.16766666666667 gamma_4_1_0 - 7.16766666666667 s_4_1 + 2 g_0
                  + 2.66666666666667 g_2 - 2 g_3 - 0.5 g_4 >= -7.16666666666667
 _2_1_4_0_7#93:   6.751 gamma_4_1_0 - 6.751 s_4_1 + 3 g_1 + 3 g_2 - 0.75 g_4
                  >= -6.75
 _2_1_4_0_9#94:   6.751 gamma_4_1_0 - 6.751 s_4_1 + 3 g_1 + 3 g_2 - 0.75 g_4
                  >= -6.75
 _2_1_4_0_11#95:  10.251 gamma_4_1_0 - 10.251 s_4_1 + g_0 + 3 g_1 + 3.5 g_2
                  - g_3 - 1.75 g_4 >= -10.25
 _2_1_4_1_0#96:   10.501 gamma_4_1_1 - 10.501 s_4_1 + 2 g_0 - 5 g_1 - g_2
                  - 2 g_3 + 0.5 g_4 >= -10.5
 _2_1_4_1_2#97:   10.501 gamma_4_1_1 - 10.501 s_4_1 + 2 g_0 - 5 g_1 - g_2
                  - 2 g_3 + 0.5 g_4 >= -10.5
 _2_1_4_1_4#98:   7.58433333333333 gamma_4_1_1 - 7.58433333333333 s_4_1 + 2 g_0
                  - 3 g_1 - 0.333333333333333 g_2 - 2 g_3 + 0.25 g_4
                  >= -7.58333333333333
 _2_1_4_1_6#99:   0.001 gamma_4_1_1 - 0.001 s_4_1 >= 0
 _2_1_4_1_9#100:  3.501 gamma_4_1_1 - 3.501 s_4_1 + g_0 + 0.5 g_2 - g_3 - g_4
                  >= -3.5
 _2_1_4_2_1#101:  0.001 gamma_4_1_2 - 0.001 s_4_1 >= 0
 _2_1_4_2_3#102:  2.91766666666667 gamma_4_1_2 - 2.91766666666667 s_4_1 + 2 g_1
                  + 0.666666666666667 g_2 - 0.25 g_4 >= -2.91666666666667
 _2_1_4_2_5#103:  10.501 gamma_4_1_2 - 10.501 s_4_1 - 2 g_0 + 5 g_1 + g_2
                  + 2 g_3 - 0.5 g_4 >= -10.5
 _2_1_4_2_7#104:  10.001 gamma_4_1_2 - 10.001 s_4_1 - g_0 + 5 g_1 + 1.5 g_2
                  + g_3 - 1.5 g_4 >= -10
 _2_1_5_0_1#105:  8.251 gamma_4_0_0 - 8.251 s_4_0 + 2 g_0 - 2 g_1 + 2 g_2
                  - 2 g_3 - 0.25 g_4 >= -8.25
 _2_1_5_0_3#106:  8.251 gamma_4_0_0 - 8.251 s_4_0 + 2 g_0 - 2 g_1 + 2 g_2
                  - 2 g_3 - 0.25 g_4 >= -8.25
 _2_1_5_0_5#107:  7.16766666666667 gamma_4_0_0 - 7.16766666666667 s_4_0 + 2 g_0
                  + 2.66666666666667 g_2 - 2 g_3 - 0.5 g_4 >= -7.16666666666667
 _2_1_5_0_7#108:  6.751 gamma_4_0_0 - 6.751 s_4_0 + 3 g_1 + 3 g_2 - 0.75 g_4
                  >= -6.75
 _2_1_5_0_9#109:  6.751 gamma_4_0_0 - 6.751 s_4_0 + 3 g_1 + 3 g_2 - 0.75 g_4
                  >= -6.75
 _2_1_5_0_11#110: 10.251 gamma_4_0_0 - 10.251 s_4_0 + g_0 + 3 g_1 + 3.5 g_2
                  - g_3 - 1.75 g_4 >= -10.25
 _2_1_5_1_1#111:  0.001 gamma_4_0_1 - 0.001 s_4_0 >= 0
 _2_1_5_1_3#112:  2.91766666666667 gamma_4_0_1 - 2.91766666666667 s_4_0 + 2 g_1
                  + 0.666666666666667 g_2 - 0.25 g_4 >= -2.91666666666667
 _2_1_5_1_5#113:  10.501 gamma_4_0_1 - 10.501 s_4_0 - 2 g_0 + 5 g_1 + g_2
                  + 2 g_3 - 0.5 g_4 >= -10.5
 _2_1_5_1_7#114:  10.501 gamma_4_0_1 - 10.501 s_4_0 - 2 g_0 + 5 g_1 + g_2
                  + 2 g_3 - 0.5 g_4 >= -10.5
 _2_1_5_1_9#115:  10.001 gamma_4_0_1 - 10.001 s_4_0 - g_0 + 5 g_1 + 1.5 g_2
                  + g_3 - 1.5 g_4 >= -10
 _2_1_5_2_0#116:  0.001 gamma_4_0_2 - 0.001 s_4_0 >= 0
 _2_2_0_0_0#117:  501.501 gamma_1_1_0 - 501.501 s_1_1 + 100 g_0 - 300 g_1 - g_2
                  - 100 g_3 + 0.5 g_4 >= -501.5
 _2_2_0_0_2#118:  1500.976 gamma_1_1_0 - 1500.976 s_1_1 + 400 g_0 - 700 g_1
                  - 0.6 g_2 - 400 g_3 + 0.375 g_4 >= -1500.975
 _2_2_0_0_5#119:  0.001 gamma_1_1_0 - 0.001 s_1_1 >= 0
 _2_2_0_0_7#120:  1200.001 gamma_1_1_0 - 1200.001 s_1_1 + 400 g_0 - 400 g_1
                  - 400 g_3 >= -1200
 _2_2_0_0_9#121:  1100.451 gamma_1_1_0 - 1100.451 s_1_1 + 400 g_0 - 300 g_1
                  + 0.2 g_2 - 400 g_3 - 0.25 g_4 >= -1100.45
 _2_2_0_0_11#122: 902.101 gamma_1_1_0 - 902.101 s_1_1 + 400 g_0 - 100 g_1
                  + 0.6 g_2 - 400 g_3 - 1.5 g_4 >= -902.1
 _2_2_0_1_0#123:  1000.526 gamma_1_1_1 - 1000.526 s_1_1 - 300 g_0 + 400 g_1
                  - 0.4 g_2 + 300 g_3 + 0.125 g_4 >= -1000.525
 _2_2_0_1_3#124:  1500.976 gamma_1_1_1 - 1500.976 s_1_1 - 400 g_0 + 700 g_1
                  + 0.6 g_2 + 400 g_3 - 0.375 g_4 >= -1500.975
 _2_2_0_1_5#125:  300.976 gamma_1_1_1 - 300.976 s_1_1 + 300 g_1 + 0.6 g_2
                  - 0.375 g_4 >= -300.975
 _2_2_0_1_7#126:  401.426 gamma_1_1_1 - 401.426 s_1_1 + 400 g_1 + 0.8 g_2
                  - 0.625 g_4 >= -401.425
 _2_2_0_1_9#127:  603.076 gamma_1_1_1 - 603.076 s_1_1 + 600 g_1 + 1.2 g_2
                  - 1.875 g_4 >= -603.075
 _2_2_1_0_0#128:  1000.526 gamma_1_0_0 - 1000.526 s_1_0 - 300 g_0 + 400 g_1
                  - 0.4 g_2 + 300 g_3 + 0.125 g_4 >= -1000.525
 _2_2_1_0_3#129:  1500.976 gamma_1_0_0 - 1500.976 s_1_0 - 400 g_0 + 700 g_1
                  + 0.6 g_2 + 400 g_3 - 0.375 g_4 >= -1500.975
 _2_2_1_0_5#130:  1500.976 gamma_1_0_0 - 1500.976 s_1_0 - 400 g_0 + 700 g_1
                  + 0.6 g_2 + 400 g_3 - 0.375 g_4 >= -1500.975
 _2_2_1_0_7#131:  300.976 gamma_1_0_0 - 300.976 s_1_0 + 300 g_1 + 0.6 g_2
                  - 0.375 g_4 >= -300.975
 _2_2_1_0_9#132:  401.426 gamma_1_0_0 - 401.426 s_1_0 + 400 g_1 + 0.8 g_2
                  - 0.625 g_4 >= -401.425
 _2_2_1_0_11#133: 603.076 gamma_1_0_0 - 603.076 s_1_0 + 600 g_1 + 1.2 g_2
                  - 1.875 g_4 >= -603.075
 _2_2_1_1_1#134:  0.001 gamma_1_0_1 - 0.001 s_1_0 >= 0
 _2_3_0_0_0#135:  4.58433333333333 gamma_0_1_0 - 4.58433333333333 s_0_1 + g_0
                  - 2 g_1 - 0.333333333333333 g_2 - g_3 + 0.25 g_4
                  >= -4.58333333333333
 _2_3_0_0_3#136:  9.001 gamma_0_1_0 - 9.001 s_0_1 + 3 g_0 - 3 g_1 - 3 g_3 >= -9
 _2_3_0_0_5#137:  2.83433333333333 gamma_0_1_0 - 2.83433333333333 s_0_1 + g_0
                  + 0.333333333333333 g_2 - g_3 - 0.5 g_4 >= -2.83333333333333
 _2_3_0_1_1#138:  3.41766666666667 gamma_0_1_1 - 3.41766666666667 s_0_1 + 2 g_1
                  + 0.666666666666667 g_2 - 0.75 g_4 >= -3.41666666666667
 _2_3_1_0_1#139:  4.58433333333333 gamma_0_0_0 - 4.58433333333333 s_0_0 - g_0
                  + 2 g_1 + 0.333333333333333 g_2 + g_3 - 0.25 g_4
                  >= -4.58333333333333
 _2_3_1_0_3#140:  5.58433333333333 gamma_0_0_0 - 5.58433333333333 s_0_0 + 2 g_0
                  - g_1 + 0.333333333333333 g_2 - 2 g_3 - 0.25 g_4
                  >= -5.58333333333333
 _2_3_1_0_5#141:  3.41766666666667 gamma_0_0_0 - 3.41766666666667 s_0_0 + 2 g_1
                  + 0.666666666666667 g_2 - 0.75 g_4 >= -3.41666666666667
 _2_4_0_0_0#142:  5.501 gamma_3_5_0 - 5.501 s_3_5 + 2 g_0 + 0.5 g_2 - 2 g_3
                  - g_4 >= -5.5
 _2_4_0_0_2#143:  12.976 gamma_3_5_0 - 12.976 s_3_5 + 3 g_0 - 6 g_1 - 0.6 g_2
                  - 3 g_3 + 0.375 g_4 >= -12.975
 _2_4_0_0_4#144:  5.58433333333333 gamma_3_5_0 - 5.58433333333333 s_3_5 + 2 g_0
                  - g_1 + 0.25 g_2 - 2 g_3 - 0.333333333333333 g_4
                  >= -5.58333333333333
 _2_4_0_0_6#145:  8.751 gamma_3_5_0 - 8.751 s_3_5 + 2 g_0 + g_1 + 0.75 g_2
                  - 2 g_3 - 3 g_4 >= -8.75
 _2_4_0_0_8#146:  7.501 gamma_3_5_0 - 7.501 s_3_5 + g_0 - 4 g_1 - g_2 - g_3
                  + 0.5 g_4 >= -7.5
 _2_4_0_0_11#147: 5.58433333333333 gamma_3_5_0 - 5.58433333333333 s_3_5 + 2 g_0
                  - g_1 + 0.25 g_2 - 2 g_3 - 0.333333333333333 g_4
                  >= -5.58333333333333
 _2_4_0_1_0#148:  9.001 gamma_3_5_1 - 9.001 s_3_5 + g_0 + 4 g_1 + 1.5 g_2 - g_3
                  - 1.5 g_4 >= -9
 _2_4_0_1_2#149:  6.526 gamma_3_5_1 - 6.526 s_3_5 + 2 g_0 - 2 g_1 + 0.4 g_2
                  - 2 g_3 - 0.125 g_4 >= -6.525
 _2_4_0_1_4#150:  7.08433333333333 gamma_3_5_1 - 7.08433333333333 s_3_5 + g_0
                  + 3 g_1 + 1.25 g_2 - g_3 - 0.833333333333333 g_4
                  >= -7.08333333333333
 _2_4_0_1_6#151:  12.251 gamma_3_5_1 - 12.251 s_3_5 + g_0 + 5 g_1 + 1.75 g_2
                  - g_3 - 3.5 g_4 >= -12.25
 _2_4_0_1_9#152:  7.08433333333333 gamma_3_5_1 - 7.08433333333333 s_3_5 + g_0
                  + 3 g_1 + 1.25 g_2 - g_3 - 0.833333333333333 g_4
                  >= -7.08333333333333
 _2_4_0_2_0#153:  10.476 gamma_3_5_2 - 10.476 s_3_5 - g_0 + 6 g_1 + 1.1 g_2
                  + g_3 - 1.375 g_4 >= -10.475
 _2_4_0_2_3#154:  8.55933333333333 gamma_3_5_2 - 8.55933333333333 s_3_5 - g_0
                  + 5 g_1 + 0.85 g_2 + g_3 - 0.708333333333333 g_4
                  >= -8.55833333333333
 _2_4_0_2_5#155:  13.726 gamma_3_5_2 - 13.726 s_3_5 - g_0 + 7 g_1 + 1.35 g_2
                  + g_3 - 3.375 g_4 >= -13.725
 _2_4_0_2_7#156:  8.55933333333333 gamma_3_5_2 - 8.55933333333333 s_3_5 - g_0
                  + 5 g_1 + 0.85 g_2 + g_3 - 0.708333333333333 g_4
                  >= -8.55833333333333
 _2_4_1_0_0#157:  5.501 gamma_3_4_0 - 5.501 s_3_4 + 2 g_0 + 0.5 g_2 - 2 g_3
                  - g_4 >= -5.5
 _2_4_1_0_2#158:  12.976 gamma_3_4_0 - 12.976 s_3_4 + 3 g_0 - 6 g_1 - 0.6 g_2
                  - 3 g_3 + 0.375 g_4 >= -12.975
 _2_4_1_0_4#159:  5.58433333333333 gamma_3_4_0 - 5.58433333333333 s_3_4 + 2 g_0
                  - g_1 + 0.25 g_2 - 2 g_3 - 0.333333333333333 g_4
                  >= -5.58333333333333
 _2_4_1_0_6#160:  8.751 gamma_3_4_0 - 8.751 s_3_4 + 2 g_0 + g_1 + 0.75 g_2
                  - 2 g_3 - 3 g_4 >= -8.75
 _2_4_1_0_8#161:  7.501 gamma_3_4_0 - 7.501 s_3_4 + g_0 - 4 g_1 - g_2 - g_3
                  + 0.5 g_4 >= -7.5
 _2_4_1_0_11#162: 5.58433333333333 gamma_3_4_0 - 5.58433333333333 s_3_4 + 2 g_0
                  - g_1 + 0.25 g_2 - 2 g_3 - 0.333333333333333 g_4
                  >= -5.58333333333333
 _2_4_1_1_0#163:  10.476 gamma_3_4_1 - 10.476 s_3_4 - g_0 + 6 g_1 + 1.1 g_2
                  + g_3 - 1.375 g_4 >= -10.475
 _2_4_1_1_3#164:  8.55933333333333 gamma_3_4_1 - 8.55933333333333 s_3_4 - g_0
                  + 5 g_1 + 0.85 g_2 + g_3 - 0.708333333333333 g_4
                  >= -8.55833333333333
 _2_4_1_1_5#165:  13.726 gamma_3_4_1 - 13.726 s_3_4 - g_0 + 7 g_1 + 1.35 g_2
                  + g_3 - 3.375 g_4 >= -13.725
 _2_4_1_1_7#166:  6.526 gamma_3_4_1 - 6.526 s_3_4 - 2 g_0 + 2 g_1 - 0.4 g_2
                  + 2 g_3 + 0.125 g_4 >= -6.525
 _2_4_1_1_9#167:  8.55933333333333 gamma_3_4_1 - 8.55933333333333 s_3_4 - g_0
                  + 5 g_1 + 0.85 g_2 + g_3 - 0.708333333333333 g_4
                  >= -8.55833333333333
 _2_4_2_0_0#168:  9.001 gamma_3_3_0 - 9.001 s_3_3 + g_0 + 4 g_1 + 1.5 g_2 - g_3
                  - 1.5 g_4 >= -9
 _2_4_2_0_2#169:  6.526 gamma_3_3_0 - 6.526 s_3_3 + 2 g_0 - 2 g_1 + 0.4 g_2
                  - 2 g_3 - 0.125 g_4 >= -6.525
 _2_4_2_0_4#170:  7.08433333333333 gamma_3_3_0 - 7.08433333333333 s_3_3 + g_0
                  + 3 g_1 + 1.25 g_2 - g_3 - 0.833333333333333 g_4
                  >= -7.08333333333333
 _2_4_2_0_6#171:  12.251 gamma_3_3_0 - 12.251 s_3_3 + g_0 + 5 g_1 + 1.75 g_2
                  - g_3 - 3.5 g_4 >= -12.25
 _2_4_2_0_9#172:  7.501 gamma_3_3_0 - 7.501 s_3_3 - g_0 + 4 g_1 + g_2 + g_3
                  - 0.5 g_4 >= -7.5
 _2_4_2_0_11#173: 7.08433333333333 gamma_3_3_0 - 7.08433333333333 s_3_3 + g_0
                  + 3 g_1 + 1.25 g_2 - g_3 - 0.833333333333333 g_4
                  >= -7.08333333333333
 _2_4_2_1_0#174:  5.501 gamma_3_3_1 - 5.501 s_3_3 + 2 g_0 + 0.5 g_2 - 2 g_3
                  - g_4 >= -5.5
 _2_4_2_1_2#175:  12.976 gamma_3_3_1 - 12.976 s_3_3 + 3 g_0 - 6 g_1 - 0.6 g_2
                  - 3 g_3 + 0.375 g_4 >= -12.975
 _2_4_2_1_4#176:  5.58433333333333 gamma_3_3_1 - 5.58433333333333 s_3_3 + 2 g_0
                  - g_1 + 0.25 g_2 - 2 g_3 - 0.333333333333333 g_4
                  >= -5.58333333333333
 _2_4_2_1_6#177:  8.751 gamma_3_3_1 - 8.751 s_3_3 + 2 g_0 + g_1 + 0.75 g_2
                  - 2 g_3 - 3 g_4 >= -8.75
 _2_4_2_1_9#178:  5.58433333333333 gamma_3_3_1 - 5.58433333333333 s_3_3 + 2 g_0
                  - g_1 + 0.25 g_2 - 2 g_3 - 0.333333333333333 g_4
                  >= -5.58333333333333
 _2_4_2_2_0#179:  10.476 gamma_3_3_2 - 10.476 s_3_3 - g_0 + 6 g_1 + 1.1 g_2
                  + g_3 - 1.375 g_4 >= -10.475
 _2_4_2_2_3#180:  8.55933333333333 gamma_3_3_2 - 8.55933333333333 s_3_3 - g_0
                  + 5 g_1 + 0.85 g_2 + g_3 - 0.708333333333333 g_4
                  >= -8.55833333333333
 _2_4_2_2_5#181:  13.726 gamma_3_3_2 - 13.726 s_3_3 - g_0 + 7 g_1 + 1.35 g_2
                  + g_3 - 3.375 g_4 >= -13.725
 _2_4_2_2_7#182:  8.55933333333333 gamma_3_3_2 - 8.55933333333333 s_3_3 - g_0
                  + 5 g_1 + 0.85 g_2 + g_3 - 0.708333333333333 g_4
                  >= -8.55833333333333
 _2_4_3_0_0#183:  9.001 gamma_3_2_0 - 9.001 s_3_2 + g_0 + 4 g_1 + 1.5 g_2 - g_3
                  - 1.5 g_4 >= -9
 _2_4_3_0_2#184:  6.526 gamma_3_2_0 - 6.526 s_3_2 + 2 g_0 - 2 g_1 + 0.4 g_2
                  - 2 g_3 - 0.125 g_4 >= -6.525
 _2_4_3_0_4#185:  7.08433333333333 gamma_3_2_0 - 7.08433333333333 s_3_2 + g_0
                  + 3 g_1 + 1.25 g_2 - g_3 - 0.833333333333333 g_4
                  >= -7.08333333333333
 _2_4_3_0_6#186:  12.251 gamma_3_2_0 - 12.251 s_3_2 + g_0 + 5 g_1 + 1.75 g_2
                  - g_3 - 3.5 g_4 >= -12.25
 _2_4_3_0_9#187:  7.501 gamma_3_2_0 - 7.501 s_3_2 - g_0 + 4 g_1 + g_2 + g_3
                  - 0.5 g_4 >= -7.5
 _2_4_3_0_11#188: 7.08433333333333 gamma_3_2_0 - 7.08433333333333 s_3_2 + g_0
                  + 3 g_1 + 1.25 g_2 - g_3 - 0.833333333333333 g_4
                  >= -7.08333333333333
 _2_4_3_1_0#189:  10.476 gamma_3_2_1 - 10.476 s_3_2 - g_0 + 6 g_1 + 1.1 g_2
                  + g_3 - 1.375 g_4 >= -10.475
 _2_4_3_1_3#190:  8.55933333333333 gamma_3_2_1 - 8.55933333333333 s_3_2 - g_0
                  + 5 g_1 + 0.85 g_2 + g_3 - 0.708333333333333 g_4
                  >= -8.55833333333333
 _2_4_3_1_5#191:  13.726 gamma_3_2_1 - 13.726 s_3_2 - g_0 + 7 g_1 + 1.35 g_2
                  + g_3 - 3.375 g_4 >= -13.725
 _2_4_3_1_7#192:  12.976 gamma_3_2_1 - 12.976 s_3_2 - 3 g_0 + 6 g_1 + 0.6 g_2
                  + 3 g_3 - 0.375 g_4 >= -12.975
 _2_4_3_1_9#193:  8.55933333333333 gamma_3_2_1 - 8.55933333333333 s_3_2 - g_0
                  + 5 g_1 + 0.85 g_2 + g_3 - 0.708333333333333 g_4
                  >= -8.55833333333333
 _2_4_4_0_0#194:  10.476 gamma_3_1_0 - 10.476 s_3_1 - g_0 + 6 g_1 + 1.1 g_2
                  + g_3 - 1.375 g_4 >= -10.475
 _2_4_4_0_3#195:  8.55933333333333 gamma_3_1_0 - 8.55933333333333 s_3_1 - g_0
                  + 5 g_1 + 0.85 g_2 + g_3 - 0.708333333333333 g_4
                  >= -8.55833333333333
 _2_4_4_0_5#196:  13.726 gamma_3_1_0 - 13.726 s_3_1 - g_0 + 7 g_1 + 1.35 g_2
                  + g_3 - 3.375 g_4 >= -13.725
 _2_4_4_0_7#197:  6.526 gamma_3_1_0 - 6.526 s_3_1 - 2 g_0 + 2 g_1 - 0.4 g_2
                  + 2 g_3 + 0.125 g_4 >= -6.525
 _2_4_4_0_9#198:  12.976 gamma_3_1_0 - 12.976 s_3_1 - 3 g_0 + 6 g_1 + 0.6 g_2
                  + 3 g_3 - 0.375 g_4 >= -12.975
 _2_4_4_0_11#199: 8.55933333333333 gamma_3_1_0 - 8.55933333333333 s_3_1 - g_0
                  + 5 g_1 + 0.85 g_2 + g_3 - 0.708333333333333 g_4
                  >= -8.55833333333333
 _2_4_4_1_0#200:  5.501 gamma_3_1_1 - 5.501 s_3_1 + 2 g_0 + 0.5 g_2 - 2 g_3
                  - g_4 >= -5.5
 _2_4_4_1_2#201:  5.58433333333333 gamma_3_1_1 - 5.58433333333333 s_3_1 + 2 g_0
                  - g_1 + 0.25 g_2 - 2 g_3 - 0.333333333333333 g_4
                  >= -5.58333333333333
 _2_4_4_1_4#202:  8.751 gamma_3_1_1 - 8.751 s_3_1 + 2 g_0 + g_1 + 0.75 g_2
                  - 2 g_3 - 3 g_4 >= -8.75
 _2_4_4_1_6#203:  7.501 gamma_3_1_1 - 7.501 s_3_1 + g_0 - 4 g_1 - g_2 - g_3
                  + 0.5 g_4 >= -7.5
 _2_4_4_1_9#204:  5.58433333333333 gamma_3_1_1 - 5.58433333333333 s_3_1 + 2 g_0
                  - g_1 + 0.25 g_2 - 2 g_3 - 0.333333333333333 g_4
                  >= -5.58333333333333
 _2_4_5_0_0#205:  10.476 gamma_3_0_0 - 10.476 s_3_0 - g_0 + 6 g_1 + 1.1 g_2
                  + g_3 - 1.375 g_4 >= -10.475
 _2_4_5_0_3#206:  8.55933333333333 gamma_3_0_0 - 8.55933333333333 s_3_0 - g_0
                  + 5 g_1 + 0.85 g_2 + g_3 - 0.708333333333333 g_4
                  >= -8.55833333333333
 _2_4_5_0_5#207:  13.726 gamma_3_0_0 - 13.726 s_3_0 - g_0 + 7 g_1 + 1.35 g_2
                  + g_3 - 3.375 g_4 >= -13.725
 _2_4_5_0_7#208:  6.526 gamma_3_0_0 - 6.526 s_3_0 - 2 g_0 + 2 g_1 - 0.4 g_2
                  + 2 g_3 + 0.125 g_4 >= -6.525
 _2_4_5_0_9#209:  12.976 gamma_3_0_0 - 12.976 s_3_0 - 3 g_0 + 6 g_1 + 0.6 g_2
                  + 3 g_3 - 0.375 g_4 >= -12.975
 _2_4_5_0_11#210: 8.55933333333333 gamma_3_0_0 - 8.55933333333333 s_3_0 - g_0
                  + 5 g_1 + 0.85 g_2 + g_3 - 0.708333333333333 g_4
                  >= -8.55833333333333
 _2_4_5_1_0#211:  9.001 gamma_3_0_1 - 9.001 s_3_0 + g_0 + 4 g_1 + 1.5 g_2 - g_3
                  - 1.5 g_4 >= -9
 _2_4_5_1_2#212:  7.08433333333333 gamma_3_0_1 - 7.08433333333333 s_3_0 + g_0
                  + 3 g_1 + 1.25 g_2 - g_3 - 0.833333333333333 g_4
                  >= -7.08333333333333
 _2_4_5_1_4#213:  12.251 gamma_3_0_1 - 12.251 s_3_0 + g_0 + 5 g_1 + 1.75 g_2
                  - g_3 - 3.5 g_4 >= -12.25
 _2_4_5_1_7#214:  7.501 gamma_3_0_1 - 7.501 s_3_0 - g_0 + 4 g_1 + g_2 + g_3
                  - 0.5 g_4 >= -7.5
 _2_4_5_1_9#215:  7.08433333333333 gamma_3_0_1 - 7.08433333333333 s_3_0 + g_0
                  + 3 g_1 + 1.25 g_2 - g_3 - 0.833333333333333 g_4
                  >= -7.08333333333333
 c217#216:        a_0 - g_0 >= 0
 c218#217:        a_0 + g_0 >= 0
 c219#218:        a_1 - g_1 >= 0
 c220#219:        a_1 + g_1 >= 0
 c221#220:        a_2 - g_2 >= 0
 c222#221:        a_2 + g_2 >= 0
 c223#222:        a_3 - g_3 >= 0
 c224#223:        a_3 + g_3 >= 0
 c225#224:        a_4 - g_4 >= 0
 c226#225:        a_4 + g_4 >= 0
Bounds
 0 <= gamma_2_5_0 <= 1
 0 <= gamma_2_5_1 <= 1
 0 <= gamma_2_5_2 <= 1
 0 <= gamma_2_4_0 <= 1
 0 <= gamma_2_4_1 <= 1
 0 <= gamma_2_4_2 <= 1
 0 <= gamma_2_3_0 <= 1
 0 <= gamma_2_3_1 <= 1
 0 <= gamma_2_3_2 <= 1
 0 <= gamma_2_2_0 <= 1
 0 <= gamma_2_2_1 <= 1
 0 <= gamma_2_2_2 <= 1
 0 <= gamma_2_1_0 <= 1
 0 <= gamma_2_1_1 <= 1
 0 <= gamma_2_1_2 <= 1
 0 <= gamma_2_0_0 <= 1
 0 <= gamma_2_0_1 <= 1
 0 <= gamma_2_0_2 <= 1
 0 <= gamma_4_5_0 <= 1
 0 <= gamma_4_5_1 <= 1
 0 <= gamma_4_5_2 <= 1
 0 <= gamma_4_4_0 <= 1
 0 <= gamma_4_4_1 <= 1
 0 <= gamma_4_4_2 <= 1
 0 <= gamma_4_3_0 <= 1
 0 <= gamma_4_3_1 <= 1
 0 <= gamma_4_3_2 <= 1
 0 <= gamma_4_2_0 <= 1
 0 <= gamma_4_2_1 <= 1
 0 <= gamma_4_2_2 <= 1
 0 <= gamma_4_1_0 <= 1
 0 <= gamma_4_1_1 <= 1
 0 <= gamma_4_1_2 <= 1
 0 <= gamma_4_0_0 <= 1
 0 <= gamma_4_0_1 <= 1
 0 <= gamma_4_0_2 <= 1
 0 <= gamma_1_1_0 <= 1
 0 <= gamma_1_1_1 <= 1
 0 <= gamma_1_0_0 <= 1
 0 <= gamma_1_0_1 <= 1
 0 <= gamma_0_1_0 <= 1
 0 <= gamma_0_1_1 <= 1
 0 <= gamma_0_0_0 <= 1
 0 <= gamma_0_0_1 <= 1
 0 <= gamma_3_5_0 <= 1
 0 <= gamma_3_5_1 <= 1
 0 <= gamma_3_5_2 <= 1
 0 <= gamma_3_4_0 <= 1
 0 <= gamma_3_4_1 <= 1
 0 <= gamma_3_4_2 <= 1
 0 <= gamma_3_3_0 <= 1
 0 <= gamma_3_3_1 <= 1
 0 <= gamma_3_3_2 <= 1
 0 <= gamma_3_2_0 <= 1
 0 <= gamma_3_2_1 <= 1
 0 <= gamma_3_2_2 <= 1
 0 <= gamma_3_1_0 <= 1
 0 <= gamma_3_1_1 <= 1
 0 <= gamma_3_1_2 <= 1
 0 <= gamma_3_0_0 <= 1
 0 <= gamma_3_0_1 <= 1
 0 <= gamma_3_0_2 <= 1
 0 <= a_0 <= 1
 0 <= a_1 <= 1
 0 <= a_2 <= 1
 0 <= a_3 <= 1
 0 <= a_4 <= 1
 0 <= s_2_5 <= 1
 0 <= s_2_4 <= 1
 0 <= s_2_3 <= 1
 0 <= s_2_2 <= 1
 0 <= s_2_1 <= 1
 0 <= s_2_0 <= 1
 0 <= s_4_5 <= 1
 0 <= s_4_4 <= 1
 0 <= s_4_3 <= 1
 0 <= s_4_2 <= 1
 0 <= s_4_1 <= 1
 0 <= s_4_0 <= 1
 0 <= s_1_1 <= 1
 0 <= s_1_0 <= 1
 0 <= s_0_1 <= 1
 0 <= s_0_0 <= 1
 0 <= s_3_5 <= 1
 0 <= s_3_4 <= 1
 0 <= s_3_3 <= 1
 0 <= s_3_2 <= 1
 0 <= s_3_1 <= 1
 0 <= s_3_0 <= 1
-1 <= g_0 <= 1
-1 <= g_1 <= 1
-1 <= g_2 <= 1
-1 <= g_3 <= 1
-1 <= g_4 <= 1
Generals
 gamma_2_5_0  gamma_2_5_1  gamma_2_5_2  gamma_2_4_0  gamma_2_4_1  gamma_2_4_2 
 gamma_2_3_0  gamma_2_3_1  gamma_2_3_2  gamma_2_2_0  gamma_2_2_1  gamma_2_2_2 
 gamma_2_1_0  gamma_2_1_1  gamma_2_1_2  gamma_2_0_0  gamma_2_0_1  gamma_2_0_2 
 gamma_4_5_0  gamma_4_5_1  gamma_4_5_2  gamma_4_4_0  gamma_4_4_1  gamma_4_4_2 
 gamma_4_3_0  gamma_4_3_1  gamma_4_3_2  gamma_4_2_0  gamma_4_2_1  gamma_4_2_2 
 gamma_4_1_0  gamma_4_1_1  gamma_4_1_2  gamma_4_0_0  gamma_4_0_1  gamma_4_0_2 
 gamma_1_1_0  gamma_1_1_1  gamma_1_0_0  gamma_1_0_1  gamma_0_1_0  gamma_0_1_1 
 gamma_0_0_0  gamma_0_0_1  gamma_3_5_0  gamma_3_5_1  gamma_3_5_2  gamma_3_4_0 
 gamma_3_4_1  gamma_3_4_2  gamma_3_3_0  gamma_3_3_1  gamma_3_3_2  gamma_3_2_0 
 gamma_3_2_1  gamma_3_2_2  gamma_3_1_0  gamma_3_1_1  gamma_3_1_2  gamma_3_0_0 
 gamma_3_0_1  gamma_3_0_2  a_0  a_1  a_2  a_3  a_4  s_2_5  s_2_4  s_2_3  s_2_2 
 s_2_1  s_2_0  s_4_5  s_4_4  s_4_3  s_4_2  s_4_1  s_4_0  s_1_1  s_1_0  s_0_1 
 s_0_0  s_3_5  s_3_4  s_3_3  s_3_2  s_3_1  s_3_0 
End
